268435457
268435458
2147483652
2101256
1572880
4294967328
32832
4345561216
134283520
2101760
1342309376
34816
4616
536895488
67133440
4299196480
3221291264
132096
4345561216
524304
546308112
2097672
4227072
9437184
4345561216
4345561216
67125248
134217984
268436483
537927680
1073808384
2147549188
4345594016
